c 
p cnf 10 40
-8 -9 2 0
-8 -7 9 3 0
4 -8 7 0
8 -4 2 0
3 0
-8 -10 -6 3 -9 0
-5 6 -10 4 0
5 -2 -4 -1 0
-6 1 -5 8 -3 0
-1 -8 2 -3 0
-9 -6 -5 8 0
5 6 1 2 0
-2 -6 0
-4 0
-10 0
-7 5 3 1 -4 0
-9 0
3 -9 1 -5 7 0
7 -8 -4 0
5 8 0
5 7 2 0
-7 3 1 0
-10 -8 5 0
6 5 -4 0
-2 0
-1 0
9 8 -4 -7 10 0
-2 -6 -3 -1 0
-5 4 10 8 -2 0
3 5 0
1 3 6 9 0
-9 -7 0
-4 -6 0
-7 0
-3 4 6 10 0
-2 8 4 -10 5 0
-8 9 2 0
8 0
5 8 -7 0
5 -2 -9 0
